num_files = 10;
file_bytes = [9399, 11533, 3931, 8266, 24500, 906, 9548, 8079, 4664, 7850];
file_name = ["71_INVITES.md", "71_SHARD_CHALLENGES.md", "AGENT_EVAL.md", "AGENT_GOSSIP_PROTOCOL.md", "AIRDROP_SOP.md", "BBS_ARCHITECTURE.md", "BBS_WASM_CLOSURE.md", "CHALLENGE_RECON.md", "CICADA71_LEVEL0_BOOTSTRAP.md", "CICADA71_LEVEL0.md"];

num_platforms = 10;
platform_name = ["tweet280", "discord", "instagram", "tiktok", "solana-memo", "solana-account", "nft-tile", "mastodon", "bluesky", "eth-sepolia"];
capacity = [55, 972, 537, 537, 558, 10240, 196600, 112, 60, 10240];
max_carriers = [50, 20, 20, 20, 100, 100, 10, 20, 20, 50];
cost_microusd = [0, 0, 0, 0, 0, 0, 0, 0, 0, 0];

num_eccs = 3;
ecc_name = ["none", "hamming743", "golay24128"];
ecc_n = [1, 7, 24];
ecc_k = [1, 4, 12];
ecc_d = [1, 3, 8];
ecc_expansion_pct = [100, 200, 200];

max_total_carriers = 200;
devnet = true;
